NAME: 17.tsp
DIMENSION: 17
EDGE_WEIGHT_SECTION
999 3 5 48 48 8 8 5 5 3 3 999 3 5 8 8 5
3 999 3 48 48 8 8 5 5 999 999 3 999 3 8 8 5
5 3 999 72 72 48 48 24 24 3 3 5 3 999 48 48 24
48 48 74 999 999 6 6 12 12 48 48 48 48 74 6 6 12
48 48 74 999 999 6 6 12 12 48 48 48 48 74 6 6 12
8 8 5999 6 6 999 999 8 8 8 8 8 8 5999 999 999 8
8 8 5999 6 6 999 999 8 8 8 8 8 8 5999 999 999 8
5 5 26 12 12 8 8 999 999 5 5 5 5 26 8 8 999
5 5 26 12 12 8 8 999 999 5 5 5 5 26 8 8 999
3 999 3 48 48 8 8 5 5 999 999 3 999 3 8 8 5
3 999 3 48 48 8 8 5 5 999 999 3 999 3 8 8 5
999 3 5 48 48 8 8 5 5 3 3 999 3 5 8 8 5
3 999 3 48 48 8 8 5 5 999 999 3 999 3 8 8 5
5 3 999 72 72 48 48 24 24 3 3 5 3 999 48 48 24
8 8 5999 6 6 999 999 8 8 8 8 8 8 5999 999 999 8
8 8 5999 6 6 999 999 8 8 8 8 8 8 5999 999 999 8
5 5 26 12 12 8 8 999 999 5 5 5 5 26 8 8 999
